* ENCODING=ISO-8859-1
NAME          CPLEX
ROWS
 N  obj1    
 G  c1      
 G  c2      
 G  c3      
 G  c4      
 G  c5      
 G  c6      
 G  c7      
 G  c8      
 G  c9      
 G  c10     
 G  c11     
 G  c12     
 G  c13     
 G  c14     
 G  c15     
 G  c16     
 G  c17     
 G  c18     
 G  c19     
 G  c20     
 G  c21     
 G  c22     
 G  c23     
 G  c24     
 G  c25     
COLUMNS
    MARK0000  'MARKER'                 'INTORG'
    x1        obj1                            1
    x1        c1                            157
    x1        c20                           944
    x2        obj1                            1
    x2        c3                            652
    x3        obj1                            1
    x3        c4                            109
    x3        c7                            315
    x3        c15                           689
    x4        obj1                            1
    x4        c7                            852
    x4        c12                           793
    x5        obj1                            1
    x5        c3                            157
    x6        obj1                            1
    x6        c1                            762
    x6        c9                            977
    x6        c12                           732
    x7        obj1                            1
    x7        c2                            866
    x7        c8                            219
    x7        c15                           289
    x7        c17                           331
    x7        c24                           602
    x8        obj1                            1
    x8        c15                           976
    x8        c20                           457
    x9        obj1                            1
    x9        c10                           638
    x9        c13                           710
    x9        c24                           854
    x10       obj1                            1
    x10       c9                            934
    x10       c12                           372
    x10       c13                           430
    x10       c17                           841
    x11       obj1                            1
    x11       c3                            199
    x11       c5                            961
    x12       obj1                            1
    x12       c14                           542
    x12       c15                           182
    x12       c17                           137
    x12       c22                           942
    x12       c23                           386
    x13       obj1                            1
    x13       c8                            214
    x14       obj1                            1
    x15       obj1                            1
    x15       c14                           725
    x15       c15                           749
    x15       c18                           549
    x16       obj1                            1
    x16       c6                            860
    x17       obj1                            1
    x17       c4                            100
    x17       c19                           713
    x17       c22                           579
    x18       obj1                            1
    x18       c2                            294
    x18       c6                            854
    x18       c10                           819
    x18       c13                           738
    x19       obj1                            1
    x19       c7                            599
    x20       obj1                            1
    x20       c6                            563
    x20       c19                           879
    x20       c23                           548
    x20       c25                           108
    x21       obj1                            1
    x21       c6                            684
    x21       c23                           404
    x22       obj1                            1
    x22       c22                           883
    x22       c25                           469
    x23       obj1                            1
    x23       c18                           749
    x23       c20                           703
    x24       obj1                            1
    x24       c4                            601
    x24       c18                           247
    x24       c22                           180
    x25       obj1                            1
    x25       c9                            414
    x25       c10                           273
    x26       obj1                            1
    x26       c16                           701
    x26       c21                           462
    x27       obj1                            1
    x27       c11                           271
    x27       c21                           113
    x28       obj1                            1
    x28       c10                           793
    x29       obj1                            1
    x29       c11                           950
    x29       c12                           174
    x29       c13                           478
    x29       c17                           308
    x30       obj1                            1
    x30       c23                           943
    x31       obj1                            1
    x31       c4                            228
    x32       obj1                            1
    x32       c2                            782
    x32       c14                           589
    x32       c15                           698
    x33       obj1                            1
    x34       obj1                            1
    x34       c4                            651
    x34       c9                            662
    x35       obj1                            1
    x35       c4                            297
    x35       c7                            423
    x35       c8                            199
    x35       c9                            840
    x35       c12                           423
    x36       obj1                            1
    x36       c9                            293
    x36       c16                           516
    x37       obj1                            1
    x37       c5                            600
    x37       c12                           439
    x37       c18                           898
    x37       c21                           831
    x38       obj1                            1
    x38       c10                           986
    x38       c19                           308
    x38       c20                           796
    x38       c22                           409
    x39       obj1                            1
    x39       c11                           426
    x39       c18                           142
    x39       c22                           821
    x40       obj1                            1
    x40       c1                            360
    x40       c16                           394
    x40       c24                           790
    x41       obj1                            1
    x42       obj1                            1
    x42       c16                           215
    x43       obj1                            1
    x43       c5                            450
    x43       c16                           804
    x43       c17                           657
    x44       obj1                            1
    x44       c4                            619
    x44       c10                           293
    x45       obj1                            1
    x45       c10                           902
    x46       obj1                            1
    x47       obj1                            1
    x47       c3                            124
    x47       c6                            900
    x48       obj1                            1
    x48       c25                           718
    x49       obj1                            1
    x49       c3                            732
    x49       c5                            783
    x49       c12                           445
    x49       c19                           586
    x50       obj1                            1
    x50       c5                            337
    x50       c8                            735
    MARK0001  'MARKER'                 'INTEND'
RHS
    rhs       c1                            640
    rhs       c2                            971
    rhs       c3                            932
    rhs       c4                           1303
    rhs       c5                           1566
    rhs       c6                           1931
    rhs       c7                           1095
    rhs       c8                            684
    rhs       c9                           2060
    rhs       c10                          2352
    rhs       c11                           824
    rhs       c12                          1689
    rhs       c13                          1178
    rhs       c14                           928
    rhs       c15                          1792
    rhs       c16                          1315
    rhs       c17                          1137
    rhs       c18                          1293
    rhs       c19                          1243
    rhs       c20                          1450
    rhs       c21                           703
    rhs       c22                          1907
    rhs       c23                          1141
    rhs       c24                          1123
    rhs       c25                           648
BOUNDS
 LI bnd       x1        0
 LI bnd       x2        0
 LI bnd       x3        0
 LI bnd       x4        0
 LI bnd       x5        0
 LI bnd       x6        0
 LI bnd       x7        0
 LI bnd       x8        0
 LI bnd       x9        0
 LI bnd       x10       0
 LI bnd       x11       0
 LI bnd       x12       0
 LI bnd       x13       0
 LI bnd       x14       0
 LI bnd       x15       0
 LI bnd       x16       0
 LI bnd       x17       0
 LI bnd       x18       0
 LI bnd       x19       0
 LI bnd       x20       0
 LI bnd       x21       0
 LI bnd       x22       0
 LI bnd       x23       0
 LI bnd       x24       0
 LI bnd       x25       0
 LI bnd       x26       0
 LI bnd       x27       0
 LI bnd       x28       0
 LI bnd       x29       0
 LI bnd       x30       0
 LI bnd       x31       0
 LI bnd       x32       0
 LI bnd       x33       0
 LI bnd       x34       0
 LI bnd       x35       0
 LI bnd       x36       0
 LI bnd       x37       0
 LI bnd       x38       0
 LI bnd       x39       0
 LI bnd       x40       0
 LI bnd       x41       0
 LI bnd       x42       0
 LI bnd       x43       0
 LI bnd       x44       0
 LI bnd       x45       0
 LI bnd       x46       0
 LI bnd       x47       0
 LI bnd       x48       0
 LI bnd       x49       0
 LI bnd       x50       0
ENDATA
